845395
58, 61, 67, 27, 49, 62, 9, 33, 57, 47, 95, 73, 25, 78, 51, 79, 29, 40, 94, 26, 17, 12, 19, 59, 90, 71, 34, 46, 28, 11, 23, 98, 54, 65, 52, 24, 43, 22, 84, 92, 39, 14, 7, 66, 4, 81, 86, 45, 87, 80, 68, 99, 38, 76, 50, 88, 83, 15, 16, 82, 2, 64, 5, 3, 85, 89, 8, 53, 91, 97, 42, 35, 36, 72, 44, 55, 31, 60, 20, 21, 96, 30, 77, 41, 6, 75, 69, 18, 56, 10, 93, 63, 13, 32, 74, 37, 48, 1, 70
